&control
  calculation='scf', prefix='x', pseudo_dir='./pseudo', outdir='./out'
/
&system
  ibrav=14, celldm(1)=12.57824, celldm(2)=1.22342, celldm(3)=1.2407, celldm(4)=-0.00033, celldm(5)=-0.00488, celldm(6)=-0.00196, nat=32, ntyp=2,
  ecutwfc=60, ecutrho=240,
  occupations='smearing', smearing='methfessel-paxton', degauss=0.02, nspin=1
/
&electrons
  conv_thr=1.0d-10, mixing_beta=0.7
/
ATOMIC_SPECIES
  H 1.00794 H_ONCV_PBE-1.2.upf
  S 32.065 S_ONCV_PBE-1.2.upf
ATOMIC_POSITIONS crystal
  H 0.716724 0.961307 0.583081
  H 0.078075 0.343737 0.742324
  H 0.568891 0.380332 0.048478
  H 0.577303 0.530368 0.746285
  H 0.247835 0.663129 0.898122
  H 0.261505 0.228812 0.887762
  H 0.094561 0.539145 0.057353
  H 0.211328 0.961799 0.175973
  H 0.900162 0.095252 0.455699
  H 0.228265 0.954000 0.606561
  H 0.389957 0.791723 0.490763
  H 0.886326 0.786884 0.327033
  H 0.706584 0.234260 0.198637
  H 0.371719 0.107171 0.313090
  H 0.728307 0.683463 0.882048
  H 0.737880 0.618451 0.209686
  H 0.951398 0.992488 0.866265
  H 0.473553 0.938436 0.859732
  H 0.536120 0.984516 0.919457
  H 0.990548 0.922965 0.915674
  H 0.994116 0.484720 0.444536
  H 0.006470 0.415634 0.386391
  H 0.449858 0.474239 0.366790
  H 0.449606 0.414289 0.434712
  S 0.264272 0.280955 0.733315
  S 0.752442 0.612538 0.736655
  S 0.753430 0.314630 0.061764
  S 0.255329 0.639356 0.059304
  S 0.209974 0.121981 0.216034
  S 0.728861 0.119717 0.538358
  S 0.710397 0.777879 0.246742
  S 0.215149 0.792693 0.571986
K_POINTS automatic
  24 24 24 0 0 0
