&control
  calculation='scf', prefix='x', pseudo_dir='./pseudo', outdir='./out'
/
&system
  ibrav=4, celldm(1)=6.83344, celldm(3)=3.50178, nat=8, ntyp=2,
  ecutwfc=90, ecutrho=360,
  occupations='smearing', smearing='methfessel-paxton', degauss=0.02, nspin=1
/
&electrons
  conv_thr=1.0d-10, mixing_beta=0.7
/
ATOMIC_SPECIES
  Hf 178.49 Hf_ONCV_PBE-1.2.upf
  P 30.973762 P_ONCV_PBE-1.2.upf
ATOMIC_POSITIONS crystal
  Hf 0.333333 0.666667 0.383194
  Hf 0.666667 0.333333 0.883194
  Hf 0.666667 0.333333 0.616806
  Hf 0.333333 0.666667 0.116806
  P 0.666667 0.333333 0.250000
  P 0.333333 0.666667 0.750000
  P 0.000000 0.000000 0.500000
  P 0.000000 0.000000 0.000000
K_POINTS automatic
  24 24 24 0 0 0
