&control
  calculation='scf', prefix='x', pseudo_dir='./pseudo', outdir='./out'
/
&system
  ibrav=5, celldm(1)=8.15951, celldm(4)=0.0, nat=12, ntyp=2,
  ecutwfc=60, ecutrho=240,
  occupations='smearing', smearing='methfessel-paxton', degauss=0.02, nspin=1
/
&electrons
  conv_thr=1.0d-10, mixing_beta=0.7
/
ATOMIC_SPECIES
  Hg 200.59 Hg_ONCV_PBE-1.2.upf
  Sb 121.76 Sb_ONCV_PBE-1.2.upf
ATOMIC_POSITIONS crystal
  Hg 0.333333 0.666667 0.293714
  Hg 0.333333 0.666667 0.039619
  Hg 0.000000 0.000000 0.627047
  Hg 0.000000 0.000000 0.372953
  Hg 0.666667 0.333333 0.960381
  Hg 0.666667 0.333333 0.706286
  Sb 0.666667 0.333333 0.203191
  Sb 0.000000 0.000000 0.130143
  Sb 0.333333 0.666667 0.536524
  Sb 0.666667 0.333333 0.463476
  Sb 0.000000 0.000000 0.869857
  Sb 0.333333 0.666667 0.796809
K_POINTS automatic
  24 24 24 0 0 0
