&control
  calculation='scf', prefix='x', pseudo_dir='./pseudo', outdir='./out'
/
&system
  ibrav=8, celldm(1)=5.91419, celldm(2)=1.55291, celldm(3)=1.72307, nat=6, ntyp=2,
  ecutwfc=90, ecutrho=360,
  occupations='smearing', smearing='methfessel-paxton', degauss=0.02, nspin=1
/
&electrons
  conv_thr=1.0d-10, mixing_beta=0.7
/
ATOMIC_SPECIES
  N 14.0067 N_ONCV_PBE-1.2.upf
  Nb 92.90638 Nb_ONCV_PBE-1.2.upf
ATOMIC_POSITIONS crystal
  Nb 0.500000 0.758197 0.157093
  Nb 0.500000 0.241803 0.842907
  Nb 0.000000 0.258197 0.342907
  Nb 0.000000 0.741803 0.657093
  N 0.500000 0.000000 0.500000
  N 0.000000 0.500000 0.000000
K_POINTS automatic
  24 24 24 0 0 0
