&control
  calculation='scf', prefix='x', pseudo_dir='./pseudo', outdir='./out'
/
&system
  ibrav=1, celldm(1)=8.77434, nat=4, ntyp=2,
  ecutwfc=90, ecutrho=360,
  occupations='smearing', smearing='methfessel-paxton', degauss=0.02, nspin=1
/
&electrons
  conv_thr=1.0d-10, mixing_beta=0.7
/
ATOMIC_SPECIES
  In 114.818 In_ONCV_PBE-1.2.upf
  Y 88.90585 Y_ONCV_PBE-1.2.upf
ATOMIC_POSITIONS crystal
  Y 0.000000 0.000000 0.000000
  In 0.000000 0.500000 0.500000
  In 0.500000 0.000000 0.500000
  In 0.500000 0.500000 0.000000
K_POINTS automatic
  24 24 24 0 0 0
