&control
  calculation='scf', prefix='x', pseudo_dir='./pseudo', outdir='./out'
/
&system
  ibrav=1, celldm(1)=3.62918, nat=1, ntyp=1,
  ecutwfc=60, ecutrho=240,
  occupations='smearing', smearing='methfessel-paxton', degauss=0.02, nspin=1
/
&electrons
  conv_thr=1.0d-10, mixing_beta=0.7
/
ATOMIC_SPECIES
  S 32.065 S_ONCV_PBE-1.2.upf
ATOMIC_POSITIONS crystal
  S 0.000000 0.000000 0.000000
K_POINTS automatic
  32 32 32 0 0 0
