&control
  calculation='scf', prefix='x', pseudo_dir='./pseudo', outdir='./out'
/
&system
  ibrav=9, celldm(1)=12.27743, celldm(2)=1.69683, celldm(3)=0.99802, nat=24, ntyp=2,
  ecutwfc=60, ecutrho=240,
  occupations='smearing', smearing='methfessel-paxton', degauss=0.02, nspin=1
/
&electrons
  conv_thr=1.0d-10, mixing_beta=0.7
/
ATOMIC_SPECIES
  Al 26.9815386 Al_ONCV_PBE-1.2.upf
  H 1.00794 H_ONCV_PBE-1.2.upf
ATOMIC_POSITIONS crystal
  Al 1.000000 0.500000 0.500000
  Al 1.000000 0.500000 0.000000
  Al 0.500000 0.000000 0.000000
  Al 0.500000 0.000000 0.500000
  Al 0.000000 0.000000 0.500000
  Al 0.000000 0.000000 0.000000
  H 0.088494 0.292954 0.438153
  H 0.088494 0.292954 0.061847
  H 0.292954 0.088494 0.938153
  H 0.292954 0.088494 0.561847
  H 0.707046 0.911506 0.438153
  H 0.707046 0.911506 0.061847
  H 0.911506 0.707046 0.938153
  H 0.911506 0.707046 0.561847
  H 0.910846 0.504078 0.250000
  H 0.504078 0.910846 0.750000
  H 0.495922 0.089154 0.250000
  H 0.089154 0.495922 0.750000
  H 0.286799 0.713201 0.437596
  H 0.286799 0.713201 0.062404
  H 0.713201 0.286799 0.937596
  H 0.713201 0.286799 0.562404
  H 0.051336 0.948664 0.250000
  H 0.948664 0.051336 0.750000
K_POINTS automatic
  24 24 24 0 0 0
