&control
  calculation='scf', prefix='x', pseudo_dir='./pseudo', outdir='./out'
/
&system
  ibrav=7, celldm(1)=12.35526, celldm(3)=2.96497, nat=14, ntyp=2,
  ecutwfc=60, ecutrho=240,
  occupations='smearing', smearing='methfessel-paxton', degauss=0.02, nspin=1
/
&electrons
  conv_thr=1.0d-10, mixing_beta=0.7
/
ATOMIC_SPECIES
  Ca 40.078 Ca_ONCV_PBE-1.2.upf
  Sn 118.71 Sn_ONCV_PBE-1.2.upf
ATOMIC_POSITIONS crystal
  Ca 0.250000 0.250000 0.000000
  Ca 0.750000 0.750000 0.000000
  Sn 0.750000 0.250000 0.500000
  Sn 0.250000 0.750000 0.500000
  Sn 0.000000 0.000000 0.000000
  Sn 0.500000 0.500000 0.000000
  Sn 0.571500 0.071500 0.868900
  Sn 0.202600 0.702600 0.131100
  Sn 0.071500 0.202600 0.500000
  Sn 0.702600 0.571500 0.500000
  Sn 0.297400 0.428500 0.500000
  Sn 0.928500 0.797400 0.500000
  Sn 0.797400 0.297400 0.868900
  Sn 0.428500 0.928500 0.131100
K_POINTS automatic
  24 24 24 0 0 0
