&control
  calculation='scf', prefix='x', pseudo_dir='./pseudo', outdir='./out'
/
&system
  ibrav=2, celldm(1)=7.84236, nat=1, ntyp=1,
  ecutwfc=60, ecutrho=240,
  occupations='smearing', smearing='methfessel-paxton', degauss=0.02, nspin=1
/
&electrons
  conv_thr=1.0d-10, mixing_beta=0.7
/
ATOMIC_SPECIES
  I 126.90447 I_ONCV_PBE-1.2.upf
ATOMIC_POSITIONS crystal
  I 0.000000 0.000000 0.000000
K_POINTS automatic
  24 24 24 0 0 0
