&control
  calculation='scf', prefix='x', pseudo_dir='./pseudo', outdir='./out'
/
&system
  ibrav=7, celldm(1)=8.06861, celldm(3)=3.42207, nat=6, ntyp=3,
  ecutwfc=90, ecutrho=360,
  occupations='smearing', smearing='methfessel-paxton', degauss=0.02, nspin=1
/
&electrons
  conv_thr=1.0d-10, mixing_beta=0.7
/
ATOMIC_SPECIES
  La 138.90547 La_ONCV_PBE-1.2.upf
  Pt 195.084 Pt_ONCV_PBE-1.2.upf
  Si 28.0855 Si_ONCV_PBE-1.2.upf
ATOMIC_POSITIONS crystal
  La 0.329964 0.329964 0.000000
  La 0.079964 0.579964 0.500000
  Si 0.749626 0.749626 0.000000
  Si 0.499626 0.999626 0.500000
  Pt 0.917409 0.917409 0.000000
  Pt 0.667409 0.167409 0.500000
K_POINTS automatic
  24 24 24 0 0 0
