&control
  calculation='scf', prefix='x', pseudo_dir='./pseudo', outdir='./out'
/
&system
  ibrav=4, celldm(1)=6.01111, celldm(3)=4.59646, nat=8, ntyp=3,
  ecutwfc=90, ecutrho=360,
  occupations='smearing', smearing='methfessel-paxton', degauss=0.02, nspin=1
/
&electrons
  conv_thr=1.0d-10, mixing_beta=0.7
/
ATOMIC_SPECIES
  C 12.0107 C_ONCV_PBE-1.2.upf
  In 114.818 In_ONCV_PBE-1.2.upf
  Nb 92.90638 Nb_ONCV_PBE-1.2.upf
ATOMIC_POSITIONS crystal
  Nb 0.333333 0.666667 0.082189
  Nb 0.333333 0.666667 0.417811
  Nb 0.666667 0.333333 0.582189
  Nb 0.666667 0.333333 0.917811
  In 0.333333 0.666667 0.750000
  In 0.666667 0.333333 0.250000
  C 0.000000 0.000000 0.000000
  C 0.000000 0.000000 0.500000
K_POINTS automatic
  24 24 24 0 0 0
