&control
  calculation='scf', prefix='x', pseudo_dir='./pseudo', outdir='./out'
/
&system
  ibrav=7, celldm(1)=13.09022, celldm(3)=0.62413, nat=9, ntyp=2,
  ecutwfc=90, ecutrho=360,
  occupations='smearing', smearing='methfessel-paxton', degauss=0.02, nspin=1
/
&electrons
  conv_thr=1.0d-10, mixing_beta=0.7
/
ATOMIC_SPECIES
  N 14.0067 N_ONCV_PBE-1.2.upf
  Nb 92.90638 Nb_ONCV_PBE-1.2.upf
ATOMIC_POSITIONS crystal
  Nb 0.284508 0.105744 0.390252
  Nb 0.894256 0.284508 0.178764
  Nb 0.715492 0.894256 0.609748
  Nb 0.105744 0.715492 0.821236
  N 0.193588 0.407353 0.600941
  N 0.592647 0.193588 0.786236
  N 0.806412 0.592647 0.399059
  N 0.407353 0.806412 0.213764
  N 0.000000 0.000000 0.000000
K_POINTS automatic
  24 24 24 0 0 0
