&control
  calculation='scf', prefix='x', pseudo_dir='./pseudo', outdir='./out'
/
&system
  ibrav=2, celldm(1)=8.53374, nat=2, ntyp=2,
  ecutwfc=90, ecutrho=360,
  occupations='smearing', smearing='methfessel-paxton', degauss=0.02, nspin=1
/
&electrons
  conv_thr=1.0d-10, mixing_beta=0.7
/
ATOMIC_SPECIES
  C 12.0107 C_ONCV_PBE-1.2.upf
  Nb 92.90638 Nb_ONCV_PBE-1.2.upf
ATOMIC_POSITIONS crystal
  Nb 0.000000 0.000000 0.000000
  C 0.500000 0.500000 0.500000
K_POINTS automatic
  24 24 24 0 0 0
