&control
  calculation='scf', prefix='x', pseudo_dir='./pseudo', outdir='./out'
/
&system
  ibrav=10, celldm(1)=19.63992, celldm(2)=1.22794, celldm(3)=2.3512, nat=32, ntyp=1,
  ecutwfc=60, ecutrho=240,
  occupations='smearing', smearing='methfessel-paxton', degauss=0.02, nspin=1
/
&electrons
  conv_thr=1.0d-10, mixing_beta=0.7
/
ATOMIC_SPECIES
  S 32.065 S_ONCV_PBE-1.2.upf
ATOMIC_POSITIONS crystal
  S 0.060880 0.948380 0.372240
  S 0.948380 0.060880 0.618500
  S 0.618500 0.372240 0.948380
  S 0.372240 0.618500 0.060880
  S 0.189120 0.301620 0.877760
  S 0.301620 0.189120 0.631500
  S 0.631500 0.877760 0.301620
  S 0.877760 0.631500 0.189120
  S 0.884719 0.017259 0.301161
  S 0.017259 0.884719 0.796861
  S 0.796861 0.301161 0.017259
  S 0.301161 0.796861 0.884719
  S 0.365281 0.232741 0.948839
  S 0.232741 0.365281 0.453139
  S 0.453139 0.948839 0.232741
  S 0.948839 0.453139 0.365281
  S 0.766228 0.885168 0.576492
  S 0.885168 0.766228 0.772112
  S 0.772112 0.576492 0.885168
  S 0.576492 0.772112 0.766228
  S 0.483772 0.364832 0.673508
  S 0.364832 0.483772 0.477888
  S 0.477888 0.673508 0.364832
  S 0.673508 0.477888 0.483772
  S 0.941486 0.815826 0.346414
  S 0.815826 0.941486 0.896274
  S 0.896274 0.346414 0.815826
  S 0.346414 0.896274 0.941486
  S 0.308514 0.434174 0.903586
  S 0.434174 0.308514 0.353726
  S 0.353726 0.903586 0.434174
  S 0.903586 0.353726 0.308514
K_POINTS automatic
  24 24 24 0 0 0
