&control
  calculation='scf', prefix='x', pseudo_dir='./pseudo', outdir='./out'
/
&system
  ibrav=2, celldm(1)=11.1246, nat=2, ntyp=2,
  ecutwfc=60, ecutrho=240,
  occupations='smearing', smearing='methfessel-paxton', degauss=0.02, nspin=1
/
&electrons
  conv_thr=1.0d-10, mixing_beta=0.7
/
ATOMIC_SPECIES
  As 74.9216 As_ONCV_PBE-1.2.upf
  Sn 118.71 Sn_ONCV_PBE-1.2.upf
ATOMIC_POSITIONS crystal
  Sn 0.000000 0.000000 0.000000
  As 0.500000 0.500000 0.500000
K_POINTS automatic
  24 24 24 0 0 0
