&control
  calculation='scf', prefix='x', pseudo_dir='./pseudo', outdir='./out'
/
&system
  ibrav=2, celldm(1)=14.09888, nat=9, ntyp=3,
  ecutwfc=90, ecutrho=360,
  occupations='smearing', smearing='methfessel-paxton', degauss=0.02, nspin=1
/
&electrons
  conv_thr=1.0d-10, mixing_beta=0.7
/
ATOMIC_SPECIES
  Co 58.933195 Co_ONCV_PBE-1.2.upf
  H 1.00794 H_ONCV_PBE-1.2.upf
  Sr 87.62 Sr_ONCV_PBE-1.2.upf
ATOMIC_POSITIONS crystal
  Sr 0.750000 0.750000 0.750000
  Sr 0.250000 0.250000 0.250000
  Co 0.000000 0.000000 0.000000
  H 0.778720 0.221280 0.778720
  H 0.221280 0.778720 0.778720
  H 0.778720 0.778720 0.221280
  H 0.221280 0.778720 0.221280
  H 0.778720 0.221280 0.221280
  H 0.221280 0.221280 0.778720
K_POINTS automatic
  24 24 24 0 0 0
