&control
  calculation='scf', prefix='x', pseudo_dir='./pseudo', outdir='./out'
/
&system
  ibrav=6, celldm(1)=11.53136, celldm(3)=0.84071, nat=12, ntyp=3,
  ecutwfc=90, ecutrho=360,
  occupations='smearing', smearing='methfessel-paxton', degauss=0.02, nspin=1
/
&electrons
  conv_thr=1.0d-10, mixing_beta=0.7
/
ATOMIC_SPECIES
  Co 58.933195 Co_ONCV_PBE-1.2.upf
  Si 28.0855 Si_ONCV_PBE-1.2.upf
  Ta 180.94788 Ta_ONCV_PBE-1.2.upf
ATOMIC_POSITIONS crystal
  Ta 0.330062 0.153745 0.500000
  Ta 0.669938 0.846255 0.500000
  Ta 0.153745 0.669938 0.500000
  Ta 0.846255 0.330062 0.500000
  Ta 0.330062 0.846255 0.000000
  Ta 0.846255 0.669938 0.000000
  Ta 0.153745 0.330062 0.000000
  Ta 0.669938 0.153745 0.000000
  Co 0.000000 0.000000 0.750000
  Co 0.000000 0.000000 0.250000
  Si 0.500000 0.500000 0.750000
  Si 0.500000 0.500000 0.250000
K_POINTS automatic
  24 24 24 0 0 0
