&control
  calculation='scf', prefix='x', pseudo_dir='./pseudo', outdir='./out'
/
&system
  ibrav=11, celldm(1)=6.09032, celldm(2)=1.41336, celldm(3)=2.24606, nat=2, ntyp=2,
  ecutwfc=90, ecutrho=360,
  occupations='smearing', smearing='methfessel-paxton', degauss=0.02, nspin=1
/
&electrons
  conv_thr=1.0d-10, mixing_beta=0.7
/
ATOMIC_SPECIES
  Sb 121.76 Sb_ONCV_PBE-1.2.upf
  Zn 65.409 Zn_ONCV_PBE-1.2.upf
ATOMIC_POSITIONS crystal
  Zn 0.161855 0.661855 0.500000
  Sb 0.474625 0.474625 0.000000
K_POINTS automatic
  24 24 24 0 0 0
