&control
  calculation='scf', prefix='x', pseudo_dir='./pseudo', outdir='./out'
/
&system
  ibrav=4, celldm(1)=7.90123, celldm(3)=2.02357, nat=4, ntyp=2,
  ecutwfc=90, ecutrho=360,
  occupations='smearing', smearing='methfessel-paxton', degauss=0.02, nspin=1
/
&electrons
  conv_thr=1.0d-10, mixing_beta=0.7
/
ATOMIC_SPECIES
  I 126.90447 I_ONCV_PBE-1.2.upf
  V 50.9415 V_ONCV_PBE-1.2.upf
ATOMIC_POSITIONS crystal
  V 0.333333 0.666667 0.352434
  V 0.666667 0.333333 0.852434
  I 0.333333 0.666667 0.022565
  I 0.666667 0.333333 0.522565
K_POINTS automatic
  24 24 24 0 0 0
